c instance by G2
c solution = 00100010110100010
c Known solution cost is 853 
p cnf 17 30
w 93 58 65 15 31 55 42 89 31 8 44 3 50 83 93 81 12
7 -6 -4 0
-5 2 -9 0
-13 14 12 0
-2 4 -6 0
-9 3 4 0
13 3 10 0
-10 11 -13 0
-2 11 15 0
10 -7 -3 0
-13 -1 11 0
-14 13 -7 0
-9 -11 4 0
17 -1 4 0
14 -8 -16 0
12 -7 13 0
8 -6 -16 0
12 -8 -1 0
-10 -11 -7 0
-1 -10 17 0
-16 -10 -15 0
-14 8 6 0
12 1 -17 0
1 5 7 0
-4 -16 15 0
-5 -15 8 0
17 13 9 0
-9 -17 4 0
-9 14 16 0
12 3 -4 0
15 1 -5 0
